c cnf/enc2_c2d_cancer.cnf
c
c weights 1 1 1 1 0.9 0.09999999999999998 1 1 1 1 0.3 0.7 1 1 1 1 0.03 0.97 0.001 0.999 0.05 0.95 0.02 0.98 1 1 1 1 0.9 0.09999999999999998 0.2 0.8 1 1 1 1 0.65 0.35 0.3 0.7 
p cnf 20 30
8 7 0
18 17 0
2 1 0
2 3 0
5 4 0
5 6 0
14 13 0
1 -3 0
4 -6 0
-8 -7 0
-18 -17 0
-2 -1 0
-5 -4 0
-14 -13 0
18 20 -8 0
18 19 -7 0
14 16 -8 0
14 15 -7 0
17 -8 -20 0
17 -7 -19 0
13 -8 -16 0
13 -7 -15 0
8 12 -2 -5 0
8 11 -2 -4 0
8 10 -1 -5 0
8 9 -1 -4 0
7 -12 -2 -5 0
7 -11 -2 -4 0
7 -10 -1 -5 0
7 -9 -1 -4 0
